JOBS = 1..8;
MACHINES = 1..3;
SPEED = 1;
time = array3d(JOBS,MACHINES,1..SPEED,[34,20,36,41,79,96,27,39,86,63,11,75,17,52,11,68,80,79,53,27,76,58,73,59]);
energy = array3d(JOBS,MACHINES,1..SPEED,[71,81,69,66,45,38,76,67,42,53,89,47,84,59,89,50,44,45,58,76,46,55,48,55]);
precedence = array2d(JOBS,MACHINES,[2,1,0,1,0,2,0,1,2,0,1,2,0,1,2,1,2,0,0,2,1,2,1,0]);
ME = 1;
TE = 128;
st_old = array2d(JOBS,MACHINES,[327,150,79,107,0,422,80,247,336,0,83,174,63,94,325,201,352,0,148,325,249,269,174,115]);
SpeedScaling = array2d(JOBS,MACHINES,[1,1,1,1,1,1,1,1,1,1,1,1,1,1,1,1,1,1,1,1,1,1,1,1]);
